200
100 100
1 80 580
2 80 872
3 80 63
4 79 779
5 79 954
6 79 847
7 78 293
8 78 767
9 77 591
10 76 954
11 76 573
12 75 871
13 75 636
14 75 402
15 75 514
16 74 187
17 73 206
18 73 896
19 73 97
20 73 239
21 72 354
22 72 823
23 72 964
24 71 919
25 70 732
26 70 753
27 70 471
28 69 180
29 68 567
30 68 854
31 68 467
32 68 735
33 68 6
34 68 959
35 67 602
36 67 892
37 67 152
38 67 494
39 65 931
40 65 330
41 65 360
42 64 52
43 64 262
44 64 103
45 64 751
46 63 259
47 63 184
48 63 597
49 63 534
50 62 786
51 62 406
52 62 71
53 62 175
54 62 409
55 61 461
56 60 89
57 60 426
58 60 230
59 60 552
60 59 275
61 59 10
62 59 465
63 58 321
64 58 658
65 58 877
66 58 774
67 58 44
68 58 127
69 58 927
70 57 245
71 57 963
72 56 532
73 56 75
74 56 343
75 56 770
76 55 144
77 55 196
78 55 985
79 55 833
80 55 121
81 54 916
82 54 203
83 53 166
84 53 195
85 52 935
86 52 229
87 51 923
88 51 764
89 51 42
90 51 37
91 50 620
92 50 759
93 50 544
94 50 948
95 49 7
96 49 674
97 49 962
98 49 835
99 48 441
100 48 370
101 48 996
102 48 616
103 47 842
104 46 716
105 46 255
106 45 605
107 45 410
108 45 698
109 44 864
110 44 913
111 44 960
112 44 916
113 44 871
114 43 46
115 43 847
116 43 668
117 42 683
118 42 133
119 42 185
120 42 647
121 41 353
122 41 787
123 41 436
124 40 622
125 40 549
126 39 216
127 39 200
128 39 849
129 39 962
130 39 820
131 39 172
132 38 167
133 37 766
134 37 34
135 37 403
136 36 24
137 36 967
138 35 963
139 35 378
140 35 445
141 34 809
142 34 40
143 34 805
144 34 938
145 34 88
146 33 153
147 33 709
148 32 746
149 32 851
150 32 951
151 31 781
152 30 858
153 29 661
154 28 647
155 27 504
156 26 265
157 26 766
158 26 54
159 25 496
160 25 291
161 25 415
162 25 475
163 25 271
164 24 31
165 24 678
166 24 89
167 24 799
168 23 749
169 23 416
170 23 961
171 22 663
172 21 853
173 21 572
174 20 961
175 19 610
176 19 839
177 18 557
178 18 635
179 18 788
180 18 50
181 17 393
182 17 836
183 17 782
184 16 851
185 16 853
186 15 17
187 15 958
188 15 469
189 14 173
190 14 983
191 14 603
192 14 111
193 13 359
194 13 483
195 13 436
196 12 275
197 12 765
198 11 602
199 11 947
200 10 50
